
Gurobi 9.1.2 (linux64) logging started Wed Sep 22 15:23:17 2021

Changed value of parameter LogFile to /home/zongzan/dist_dnn_training/MixedMemoryOpt/data/budget_sweep/p32xlarge_vgg_unet_40_None/ilp_log/ilp_mixed_15901337960.log
   Prev:   Default: 
Changed value of parameter Threads to 12
   Prev: 0  Min: 0  Max: 1024  Default: 0
Changed value of parameter TimeLimit to 3600.0
   Prev: inf  Min: 0.0  Max: inf  Default: inf
Changed value of parameter OptimalityTol to 0.0001
   Prev: 1e-06  Min: 1e-09  Max: 0.01  Default: 1e-06
Parameter IntFeasTol unchanged
   Value: 1e-05  Min: 1e-09  Max: 0.1  Default: 1e-05
Changed value of parameter Presolve to 2
   Prev: -1  Min: -1  Max: 2  Default: -1
Changed value of parameter StartNodeLimit to 10000000
   Prev: -1  Min: -3  Max: 2000000000  Default: -1
Changed value of parameter TimeLimit to 300.0
   Prev: 3600.0  Min: 0.0  Max: inf  Default: inf
Gurobi Optimizer version 9.1.2 build v9.1.2rc0 (linux64)
Thread count: 28 physical cores, 56 logical processors, using up to 12 threads
Optimize a model with 199914 rows, 35713 columns and 1213387 nonzeros
Model fingerprint: 0x465fdb63
Variable types: 5041 continuous, 30672 integer (30672 binary)
Coefficient statistics:
  Matrix range     [1e+00, 6e+07]
  Objective range  [2e+02, 3e+06]
  Bounds range     [1e+00, 4e+08]
  RHS range        [1e+00, 4e+08]
Presolve removed 185986 rows and 24634 columns
Presolve time: 3.94s
Presolved: 13928 rows, 11079 columns, 85905 nonzeros
Variable types: 0 continuous, 11079 integer (8587 binary)
Found heuristic solution: objective 6.215942e+07
Presolve removed 146 rows and 123 columns
Presolved: 13782 rows, 10957 columns, 85210 nonzeros


Root relaxation: objective 1.795160e+07, 1340 iterations, 0.18 seconds

    Nodes    |    Current Node    |     Objective Bounds      |     Work
 Expl Unexpl |  Obj  Depth IntInf | Incumbent    BestBd   Gap | It/Node Time

     0     0 1.7952e+07    0  339 6.2159e+07 1.7952e+07  71.1%     -    4s
H    0     0                    1.795160e+07 1.7952e+07  0.00%     -    4s
     0     0 1.7952e+07    0  339 1.7952e+07 1.7952e+07  0.00%     -    4s

Explored 1 nodes (5240 simplex iterations) in 4.76 seconds
Thread count was 12 (of 56 available processors)

Solution count 2: 1.79516e+07 6.21594e+07 

Optimal solution found (tolerance 1.00e-04)
Best objective 1.795160110686e+07, best bound 1.795160110686e+07, gap 0.0000%
Changed value of parameter TimeLimit to 3600.0
   Prev: 300.0  Min: 0.0  Max: inf  Default: inf


Restarting solve


Gurobi Optimizer version 9.1.2 build v9.1.2rc0 (linux64)
Thread count: 28 physical cores, 56 logical processors, using up to 12 threads
Optimize a model with 195965 rows, 35713 columns and 1209438 nonzeros
Model fingerprint: 0xe94e589f
Variable types: 5041 continuous, 30672 integer (30672 binary)
Coefficient statistics:
  Matrix range     [1e+00, 6e+07]
  Objective range  [2e+02, 3e+06]
  Bounds range     [1e+00, 4e+08]
  RHS range        [1e+00, 4e+08]

MIP start from previous solve produced solution with objective 1.79516e+07 (0.32s)
Loaded MIP start from previous solve with objective 1.79516e+07

Presolve removed 168993 rows and 20332 columns (presolve time = 5s) ...
Presolve removed 177523 rows and 22814 columns (presolve time = 10s) ...
Presolve removed 177455 rows and 22738 columns
Presolve time: 11.05s
Presolved: 18510 rows, 12975 columns, 125697 nonzeros
Variable types: 0 continuous, 12975 integer (10757 binary)

Deterministic concurrent LP optimizer: primal and dual simplex
Showing first log only...

Presolve removed 162 rows and 162 columns
Presolved: 18348 rows, 12814 columns, 125317 nonzeros

Concurrent spin time: 0.01s

Solved with dual simplex

Root relaxation: objective 1.793844e+07, 3130 iterations, 0.44 seconds

    Nodes    |    Current Node    |     Objective Bounds      |     Work
 Expl Unexpl |  Obj  Depth IntInf | Incumbent    BestBd   Gap | It/Node Time

     0     0 1.7938e+07    0  211 1.7952e+07 1.7938e+07  0.07%     -   13s
H    0     0                    1.793844e+07 1.7938e+07  0.00%     -   13s
     0     0 1.7938e+07    0  211 1.7938e+07 1.7938e+07  0.00%     -   13s

Explored 1 nodes (16794 simplex iterations) in 13.15 seconds
Thread count was 12 (of 56 available processors)

Solution count 2: 1.79384e+07 1.79516e+07 

Optimal solution found (tolerance 1.00e-04)
Best objective 1.793843543395e+07, best bound 1.793843543395e+07, gap 0.0000%
